coords = array2d(1..47, 1..2, [139, 311, 990, 683, 890, 511, 504, 96, 375, 608,
    591, 168, 548, 990, 150, 205, 622, 361, 263, 90, 44, 324, 914,
    788, 85, 943, 303, 606, 948, 360, 721, 390, 391, 997, 308, 932,
    168, 187, 843, 453, 194, 405, 46, 775, 947, 371, 893, 405, 605,
    139, 20, 379, 738, 788, 609, 870, 851, 840, 577, 141, 871, 675,
    943, 234, 904, 884, 323, 870, 109, 945, 614, 59, 45, 234, 24, 709,
    769, 346, 248, 325, 185, 90, 612, 880, 649, 289, 547, 909, 437,
    444, 110, 44, 493, 68]);

n = 47;

